13801.17,50.46,57.32
14920.68,46.67,53.02
14425.01,48.28,54.84
14029.55,49.64,56.39
13388.44,52.01,59.09
14071.12,49.49,56.22
14648.09,47.54,54.01
14044.84,49.58,56.33
14389.38,48.4,54.98
15166.39,45.92,52.16
13447.26,51.79,58.83
11970.41,58.18,66.09
14401.93,48.35,54.93
13959.4,49.89,56.67
13642.79,51.04,57.99
14459.44,48.16,54.71
12827.82,54.29,61.67
14033.18,49.63,56.37
15026.67,46.34,52.65
13363.97,52.11,59.2
